\Problem name: Knapsack

Minimize
OBJROW: -10 var(0) -13 var(1) -18 var(2) -31 var(3) -7 var(4) -15 var(5)
Subject To
constr(0):  11 var(0) + 15 var(1) + 20 var(2) + 35 var(3) + 10 var(4) + 33 var(5) <= 47
Bounds
 0 <= var(0) <= 1
 0 <= var(1) <= 1
 0 <= var(2) <= 1
 0 <= var(3) <= 1
 0 <= var(4) <= 1
 0 <= var(5) <= 1
Integers
var(0) var(1) var(2) var(3) var(4) var(5) 
End
